
-5.0
-4.9
-4.7
-4.7
-4.5
-4.4
-4.3
-4.2
-4.0
-3.9
-3.8
-3.7
-3.7
-3.7
-3.7
-3.4
-3.4
-3.4
-3.4
-3.4
-3.4
-3.4
-3.4
-3.4
-3.4
-3.4
-3.4
-3.4
-3.4
-3.4
-3.4
-3.4
-3.4
-3.4
-3.4
-3.4
-5.15
-5.0
-4.8
-4.65
-4.55
-4.55
-4.45
-4.3
-4.1
-4.0
-3.95
-3.95
-3.85
-3.8
-3.75
-3.7
-3.6
-3.5
-3.5
-3.45
-3.45
-3.45